c FILE /home/rafael/Documents/HappySet/MIHS/inputs/happygen/output/graph_scale_free_k5_p0.4_v100_20241127_083844.txt
c SOURCE This is a scale-free graph formed for the happy graph colouring problem.
c DESCRIPTION It was generated using the problem generator of Rhyd Lewis
c
c GRAPH STATS
c Seed                             = 1145247872
c Number of Nodes                  = 100
c Number of colours k              = 5
c Number of pre-assignments        = 40
c Number of links per new node     = 5
c Density                          = 0.0979798
c 
c The degrees of nodes 1 to 100, respectively, are as follows 
c [41, 35, 34, 29, 28, 26, 25, 24, 22, 20, 17, 17, 15, 15, 14, 14, 13, 13, 13, 12, 12, 11, 11, 11, 11, 11, 
c  10, 10, 10, 9, 9, 9, 9, 8, 8, 8, 8, 8, 8, 8, 8, 8, 8, 7, 7, 7, 7, 7, 7, 7, 7, 
c  7, 7, 7, 7, 6, 6, 6, 6, 6, 6, 6, 6, 6, 6, 6, 6, 6, 6, 6, 6, 6, 6, 6, 6, 6, 
c  5, 5, 5, 5, 5, 5, 5, 5, 5, 5, 5, 5, 5, 5, 5, 5, 5, 5, 5, 5, 5, 5, 5, 5] 
c  
p edge 100 485 5
e 1 2
e 1 3
e 1 4
e 1 5
e 1 7
e 1 8
e 1 9
e 1 10
e 1 11
e 1 13
e 1 14
e 1 15
e 1 18
e 1 19
e 1 20
e 1 21
e 1 23
e 1 25
e 1 26
e 1 28
e 1 29
e 1 30
e 1 31
e 1 32
e 1 33
e 1 36
e 1 40
e 1 42
e 1 43
e 1 46
e 1 51
e 1 52
e 1 53
e 1 55
e 1 57
e 1 58
e 1 60
e 1 70
e 1 78
e 1 79
e 1 100
e 2 3
e 2 4
e 2 6
e 2 7
e 2 8
e 2 9
e 2 11
e 2 12
e 2 13
e 2 17
e 2 19
e 2 27
e 2 29
e 2 32
e 2 38
e 2 40
e 2 44
e 2 45
e 2 47
e 2 50
e 2 54
e 2 58
e 2 62
e 2 64
e 2 70
e 2 74
e 2 76
e 2 82
e 2 83
e 2 84
e 2 88
e 2 90
e 2 96
e 2 100
e 3 4
e 3 5
e 3 7
e 3 8
e 3 12
e 3 13
e 3 18
e 3 19
e 3 20
e 3 21
e 3 30
e 3 31
e 3 34
e 3 35
e 3 36
e 3 39
e 3 42
e 3 44
e 3 48
e 3 52
e 3 53
e 3 61
e 3 62
e 3 65
e 3 72
e 3 75
e 3 77
e 3 81
e 3 90
e 3 95
e 3 98
e 3 99
e 4 5
e 4 6
e 4 7
e 4 8
e 4 11
e 4 13
e 4 14
e 4 15
e 4 17
e 4 22
e 4 24
e 4 27
e 4 32
e 4 34
e 4 35
e 4 38
e 4 49
e 4 56
e 4 59
e 4 65
e 4 66
e 4 70
e 4 86
e 4 92
e 4 94
e 4 100
e 5 7
e 5 8
e 5 9
e 5 14
e 5 16
e 5 17
e 5 21
e 5 23
e 5 27
e 5 28
e 5 33
e 5 35
e 5 44
e 5 51
e 5 53
e 5 59
e 5 61
e 5 63
e 5 64
e 5 75
e 5 79
e 5 80
e 5 82
e 5 86
e 5 99
e 6 7
e 6 9
e 6 10
e 6 11
e 6 12
e 6 15
e 6 17
e 6 24
e 6 26
e 6 30
e 6 31
e 6 33
e 6 36
e 6 44
e 6 47
e 6 49
e 6 51
e 6 55
e 6 56
e 6 57
e 6 71
e 6 79
e 6 90
e 6 100
e 7 8
e 7 9
e 7 12
e 7 13
e 7 14
e 7 16
e 7 17
e 7 18
e 7 20
e 7 23
e 7 29
e 7 38
e 7 47
e 7 57
e 7 59
e 7 66
e 7 68
e 7 69
e 7 87
e 8 9
e 8 16
e 8 21
e 8 24
e 8 28
e 8 31
e 8 36
e 8 40
e 8 42
e 8 54
e 8 64
e 8 65
e 8 76
e 8 78
e 8 81
e 8 87
e 8 92
e 8 94
e 9 10
e 9 11
e 9 15
e 9 18
e 9 22
e 9 26
e 9 30
e 9 38
e 9 44
e 9 63
e 9 64
e 9 77
e 9 79
e 9 85
e 9 95
e 9 99
e 10 16
e 10 17
e 10 21
e 10 23
e 10 24
e 10 37
e 10 42
e 10 49
e 10 65
e 10 68
e 10 69
e 10 71
e 10 73
e 10 74
e 10 81
e 10 91
e 10 93
e 11 12
e 11 14
e 11 20
e 11 24
e 11 29
e 11 30
e 11 35
e 11 39
e 11 41
e 11 73
e 11 82
e 11 90
e 12 19
e 12 28
e 12 32
e 12 34
e 12 39
e 12 40
e 12 53
e 12 60
e 12 63
e 12 70
e 12 77
e 12 85
e 13 14
e 13 20
e 13 21
e 13 26
e 13 36
e 13 42
e 13 45
e 13 51
e 13 82
e 13 84
e 14 27
e 14 35
e 14 37
e 14 43
e 14 47
e 14 50
e 14 51
e 14 60
e 14 98
e 15 17
e 15 22
e 15 34
e 15 43
e 15 52
e 15 66
e 15 75
e 15 80
e 15 83
e 15 88
e 16 24
e 16 25
e 16 38
e 16 45
e 16 50
e 16 72
e 16 80
e 16 91
e 16 96
e 16 97
e 17 22
e 17 23
e 17 57
e 17 58
e 17 59
e 17 82
e 18 22
e 18 28
e 18 32
e 18 37
e 18 41
e 18 46
e 18 54
e 18 56
e 18 73
e 19 46
e 19 49
e 19 54
e 19 55
e 19 78
e 19 84
e 19 85
e 19 95
e 19 96
e 20 22
e 20 27
e 20 34
e 20 53
e 20 55
e 20 62
e 20 78
e 21 25
e 21 41
e 21 48
e 21 61
e 21 67
e 21 85
e 22 25
e 22 46
e 22 52
e 22 57
e 22 67
e 23 41
e 23 62
e 23 65
e 23 77
e 23 95
e 23 97
e 24 33
e 24 50
e 24 52
e 24 56
e 24 93
e 25 31
e 25 54
e 25 66
e 25 70
e 25 71
e 25 87
e 25 93
e 26 38
e 26 69
e 26 71
e 26 76
e 26 79
e 26 81
e 26 86
e 27 31
e 27 37
e 27 56
e 27 60
e 27 94
e 28 37
e 28 40
e 28 86
e 28 89
e 28 90
e 29 35
e 29 39
e 29 45
e 29 62
e 29 67
e 29 86
e 30 49
e 30 59
e 30 84
e 30 97
e 31 45
e 31 47
e 31 80
e 32 39
e 32 46
e 32 61
e 32 89
e 33 37
e 33 48
e 33 84
e 33 87
e 33 98
e 34 91
e 34 92
e 34 94
e 35 68
e 35 77
e 36 43
e 36 78
e 36 87
e 37 67
e 37 96
e 38 58
e 38 60
e 39 58
e 39 61
e 39 97
e 40 48
e 40 64
e 40 92
e 41 44
e 41 74
e 41 81
e 41 89
e 42 83
e 42 88
e 42 99
e 43 62
e 43 68
e 43 75
e 43 83
e 44 46
e 45 50
e 45 63
e 46 85
e 47 48
e 47 68
e 48 75
e 48 94
e 49 63
e 49 76
e 50 76
e 50 80
e 51 83
e 51 88
e 52 67
e 52 73
e 53 69
e 53 92
e 54 71
e 54 73
e 55 67
e 55 72
e 55 93
e 56 95
e 57 91
e 58 97
e 59 93
e 60 88
e 61 66
e 63 89
e 64 69
e 65 74
e 66 96
e 68 72
e 69 91
e 70 72
e 71 89
e 72 99
e 73 74
e 74 98
e 75 98
e 76 100
n 10 4
n 12 3
n 14 2
n 21 4
n 22 5
n 26 4
n 27 2
n 28 3
n 33 3
n 40 3
n 44 5
n 45 1
n 46 5
n 47 2
n 49 4
n 54 4
n 58 2
n 61 4
n 62 3
n 64 3
n 65 4
n 72 5
n 73 4
n 74 4
n 76 4
n 78 5
n 80 2
n 81 4
n 82 2
n 88 1
n 89 3
n 90 3
n 91 4
n 93 4
n 94 2
n 95 5
n 96 2
n 97 2
n 99 5
n 100 4
